\ENCODING=ISO-8859-1
\Problem name: 

Maximize
 obj: -150 x1 - 230 x2 - 260 x3 - 238 y1 + 170 w1 - 210 y2 + 150 w2 + 36 w3 + 10 w4
Subject To
 c1: x1 + x2 + x3 <= 500
 c2: 2.0 x1 + y1 - w1 >= 200
 c3: 2.4 x2 + y2 - w2 >= 240
 c4: 16.0 x3 - w3 - w4 >= 0
 c6: w3 <= 6000
End
